\ENCODING=ISO-8859-1
\Problem name: IloCplex

Minimize
 obj: 1000000 p_1 + 59447 p_2 + 1000000 p_3 + 84259 p_4 + 1000000 p_5
      + 39115 p_6 + 1000000 p_7 + 102770 p_8 + 1000000 p_9 + 100661 p_10
      + 1000000 p_11 + 32198 p_12 + 1000000 p_13 + 6253 p_14 + 1000000 p_15
      + 33730 p_16 + 1000000 p_17 + 82054 p_18 + 1000000 p_19 + 8440 p_20
      + 1000000 p_21 + 111410 p_22 + 1000000 p_23 + 77049 p_24 + 1000000 p_25
      + 68132 p_26 + 1000000 p_27 + 66512 p_28 + 1000000 p_29 + 79873 p_30
      + 1000000 p_31 + 48120 p_32 + 1000000 p_33 + 14555 p_34 + 1000000 p_35
      + 9490 p_36 + 1000000 p_37 + 7754 p_38 + 1000000 p_39 + 58956 p_40
      + 1000000 p_41 + 15740 p_42 + 1000000 p_43 + 34642 p_44 + 1000000 p_45
      + 13899 p_46 + 1000000 p_47 + 58356 p_48 + 1000000 p_49 + 54370 p_50
      + 1000000 p_51 + 29870 p_52 + 1000000 p_53 + 59976 p_54 + 1000000 p_55
      + 68847 p_56 + 1000000 p_57 + 1780 p_58 + 1000000 p_59 + 75626 p_60
      + 1000000 p_61 + 55447 p_62 + 1000000 p_63 + 72425 p_64 + 1000000 p_65
      + 55613 p_66 + 1000000 p_67 + 17997 p_68 + 1000000 p_69 + 92003 p_70
      + 1000000 p_71 + 106219 p_72 + 1000000 p_73 + 103551 p_74 + 1000000 p_75
      + 79051 p_76 + 1000000 p_77 + 66723 p_78 + 1000000 p_79 + 107069 p_80
      + 1000000 p_81 + 7754 p_82 + 1000000 p_83 + 57176 p_84 + 1000000 p_85
      + 72316 p_86 + 1000000 p_87 + 63988 p_88 + 1000000 p_89 + 43216 p_90
      + 1000000 p_91 + 58866 p_92 + 1000000 p_93 + 74294 p_94 + 1000000 p_95
      + 61811 p_96 + 1000000 p_97 + 30058 p_98 + 1000000 p_99 + 63623 p_100
      + 1000000 p_101 + 87875 p_102 + 1000000 p_103 + 9169 p_104
      + 1000000 p_105 + 68132 p_106 + 1000000 p_107 + 92003 p_108
      + 1000000 p_109 + 72316 p_110 + 1000000 p_111 + 89434 p_112
      + 1000000 p_113 + 79298 p_114 + 1000000 p_115 + 25945 p_116
      + 1000000 p_117 + 34718 p_118 + 1000000 p_119 + 58830 p_120
      + 1000000 p_121 + 65345 p_122 + 1000000 p_123 + 104330 p_124
      + 1000000 p_125 + 70383 p_126 + 1000000 p_127 + 82947 p_128
      + 1000000 p_129 + 39396 p_130 + 1000000 p_131 + 114027 p_132
      + 1000000 p_133 + 47106 p_134 + 1000000 p_135 + 106219 p_136
      + 1000000 p_137 + 84597 p_138 + 1000000 p_139 + 63502 p_140
      + 1000000 p_141 + 84636 p_142 + 1000000 p_143 + 83140 p_144
      + 1000000 p_145 + 82418 p_146 + 1000000 p_147 + 31224 p_148
      + 1000000 p_149 + 93713 p_150 + 1000000 p_151 + 106495 p_152
      + 1000000 p_153 + 14130 p_154 + 1000000 p_155 + 119405 p_156
      + 1000000 p_157 + 79544 p_158 + 1000000 p_159 + 66512 p_160
      + 1000000 p_161 + 39861 p_162 + 1000000 p_163 + 91492 p_164
      + 1000000 p_165 + 93112 p_166 + 1000000 p_167 + 14366 p_168
      + 1000000 p_169 + 45842 p_170 + 1000000 p_171 + 18770 p_172
      + 1000000 p_173 + 76770 p_174 + 1000000 p_175 + 44590 p_176
      + 1000000 p_177 + 113787 p_178 + 1000000 p_179 + 106495 p_180
      + 1000000 p_181 + 53642 p_182 + 1000000 p_183 + 5065 p_184 + 84955 p_185
      + 38046 p_186 + 83136 p_187 + 112492 p_188 + 84363 p_189 + 75194 p_190
      + 76814 p_191 + 104887 p_192 + 79524 p_193 + 19853 p_194 + 27022 p_195
      + 34926 p_196 + 73274 p_197 + 38956 p_198 + 73563 p_199 + 80342 p_200
      + 61029 p_201 + 93159 p_202 + 107375 p_203 + 108077 p_204 + 83367 p_205
      + 123619 p_206 + 13184 p_207 + 63582 p_208 + 69319 p_209 + 92209 p_210
      + 84280 p_211 + 93159 p_212 + 63164 p_213 + 105412 p_214 + 90099 p_215
      + 102663 p_216 + 115183 p_217 + 107375 p_218 + 92080 p_219 + 86002 p_220
      + 84222 p_221 + 88866 p_222 + 121535 p_223 + 81674 p_224 + 85900 p_225
      + 92574 p_226 + 94194 p_227 + 50176 p_228 + 19852 p_229 + 82068 p_230
      + 53676 p_231 + 111793 p_232 + 74002 p_233 + 89907 p_234 + 89293 p_235
      + 56697 p_236 + 120352 p_237 + 104999 p_238 + 93449 p_239 + 84280 p_240
      + 85900 p_241 + 81996 p_242 + 20772 p_243 + 13184 p_244 + 70238 p_245
      + 36754 p_246 + 29061 p_247 + 92576 p_248 + 54118 p_249 + 79211 p_250
      + 65959 p_251 + 127379 p_252 + 124651 p_253 + 83290 p_254 + 78632 p_255
      + 81113 p_256 + 49360 p_257 + 73069 p_258 + 85714 p_259 + 86274 p_260
      + 93772 p_261 + 37970 p_262 + 63262 p_263 + 69885 p_264 + 108762 p_265
      + 87665 p_266 + 69856 p_267 + 61064 p_268 + 102179 p_269 + 68220 p_270
      + 86596 p_271 + 84816 p_272 + 33008 p_273 + 111793 p_274 + 84094 p_275
      + 93168 p_276 + 94788 p_277 + 16150 p_278 + 100250 p_279 + 68838 p_280
      + 133089 p_281 + 129975 p_282 + 79300 p_283 + 89387 p_284 + 102337 p_285
      + 86392 p_286 + 8584 p_287 + 115748 p_288 + 101747 p_289 + 92578 p_290
      + 94198 p_291 + 78134 p_292 + 68507 p_293 + 112337 p_294 + 71134 p_295
      + 86274 p_296 + 75194 p_297 + 108668 p_298 + 91042 p_299 + 89262 p_300
      + 76814 p_301 + 97614 p_302 + 99234 p_303 + 23108 p_304 + 85171 p_305
      + 53418 p_306 + 59668 p_307
Subject To
 c1:   p_1 + p_2 + p_234  = 4
 c2:   p_3 + p_4 + p_185 + p_235 + p_284  = 10
 c3:   p_5 + p_6 + p_236  = 4
 c4:   p_7 + p_8 + p_237  = 4
 c5:   p_9 + p_10 + p_238 + p_285  = 9
 c6:   p_11 + p_12  = 8
 c7:   p_13 + p_14  = 9
 c8:   p_15 + p_16 + p_186  = 9
 c9:   p_17 + p_18 + p_187 + p_286  = 4
 c10:  p_19 + p_20 + p_287  = 10
 c11:  p_21 + p_22 + p_188 + p_288  = 9
 c12:  p_23 + p_24 + p_189 + p_239 + p_289  = 8
 c13:  p_25 + p_26 + p_190 + p_240 + p_290  = 10
 c14:  p_27 + p_28 + p_191 + p_241 + p_291  = 11
 c15:  p_29 + p_30 + p_192 + p_305  = 9
 c16:  p_31 + p_32 + p_193 + p_242 + p_306  = 9
 c17:  p_33 + p_34 + p_194  = 11
 c18:  p_35 + p_36 + p_243  = 11
 c19:  p_37 + p_38 + p_244  = 6
 c20:  p_39 + p_40 + p_245 + p_292  = 7
 c21:  p_41 + p_42 + p_195 + p_246  = 11
 c22:  p_43 + p_44 + p_196  = 5
 c23:  p_45 + p_46 + p_247  = 4
 c24:  p_47 + p_48  = 4
 c25:  p_49 + p_50 + p_197 + p_248 + p_307  = 8
 c26:  p_51 + p_52 + p_198 + p_249  = 7
 c27:  p_53 + p_54  = 4
 c28:  p_55 + p_56 + p_199  = 4
 c29:  p_57 + p_58  = 7
 c30:  p_59 + p_60 + p_200  = 9
 c31:  p_61 + p_62 + p_201 + p_250  = 6
 c32:  p_63 + p_64  = 8
 c33:  p_65 + p_66 + p_251  = 11
 c34:  p_67 + p_68  = 9
 c35:  p_69 + p_70 + p_202  = 4
 c36:  p_71 + p_72 + p_203  = 7
 c37:  p_73 + p_74 + p_204 + p_252  = 11
 c38:  p_75 + p_76 + p_205  = 6
 c39:  p_77 + p_78 + p_293  = 5
 c40:  p_79 + p_80 + p_206 + p_253 + p_294  = 11
 c41:  p_81 + p_82 + p_207  = 7
 c42:  p_83 + p_84 + p_295  = 8
 c43:  p_85 + p_86 + p_296  = 6
 c44:  p_87 + p_88 + p_254  = 6
 c45:  p_89 + p_90  = 6
 c46:  p_91 + p_92 + p_208  = 10
 c47:  p_93 + p_94 + p_255  = 6
 c48:  p_95 + p_96 + p_256  = 6
 c49:  p_97 + p_98 + p_257  = 10
 c50:  p_99 + p_100 + p_209 + p_258  = 8
 c51:  p_101 + p_102 + p_210  = 7
 c52:  p_103 + p_104  = 8
 c53:  p_105 + p_106 + p_211 + p_259 + p_297  = 7
 c54:  p_107 + p_108 + p_212  = 9
 c55:  p_109 + p_110 + p_260  = 9
 c56:  p_111 + p_112 + p_261  = 8
 c57:  p_113 + p_114  = 11
 c58:  p_115 + p_116  = 8
 c59:  p_117 + p_118 + p_262  = 10
 c60:  p_119 + p_120 + p_213 + p_263  = 4
 c61:  p_121 + p_122 + p_264  = 5
 c62:  p_123 + p_124 + p_214 + p_265 + p_298  = 5
 c63:  p_125 + p_126 + p_215  = 4
 c64:  p_127 + p_128 + p_216 + p_266  = 8
 c65:  p_129 + p_130 + p_267  = 4
 c66:  p_131 + p_132 + p_217  = 8
 c67:  p_133 + p_134 + p_268  = 11
 c68:  p_135 + p_136 + p_218  = 10
 c69:  p_137 + p_138 + p_269  = 5
 c70:  p_139 + p_140 + p_219 + p_270  = 4
 c71:  p_141 + p_142 + p_220 + p_271 + p_299  = 8
 c72:  p_143 + p_144 + p_221 + p_272 + p_300  = 11
 c73:  p_145 + p_146 + p_222  = 7
 c74:  p_147 + p_148 + p_273  = 7
 c75:  p_149 + p_150  = 9
 c76:  p_151 + p_152 + p_274  = 11
 c77:  p_153 + p_154  = 6
 c78:  p_155 + p_156 + p_223  = 4
 c79:  p_157 + p_158 + p_224  = 11
 c80:  p_159 + p_160 + p_225 + p_275 + p_301  = 5
 c81:  p_161 + p_162  = 11
 c82:  p_163 + p_164 + p_226 + p_276 + p_302  = 11
 c83:  p_165 + p_166 + p_227 + p_277 + p_303  = 9
 c84:  p_167 + p_168 + p_278  = 6
 c85:  p_169 + p_170 + p_228  = 11
 c86:  p_171 + p_172 + p_229 + p_304  = 9
 c87:  p_173 + p_174 + p_230 + p_279  = 5
 c88:  p_175 + p_176 + p_231 + p_280  = 6
 c89:  p_177 + p_178 + p_281  = 10
 c90:  p_179 + p_180 + p_232 + p_282  = 8
 c91:  p_181 + p_182 + p_233 + p_283  = 7
 c92:  p_183 + p_184  = 11
 c93:  p_2 + p_150 + s_1 + p_185 + p_234 + p_235 + p_284  = 48
 c94:  s_2  = 115
 c95:  p_4 + p_6 + p_8 + p_80 + p_88 + p_96 + p_98 + p_100 + p_106 + p_138
       + p_160 + p_178 + s_3 + p_193 + p_197 + p_204  = 65
 c96:  p_24 + p_26 + p_28 + p_114 + p_156 + p_158 + s_4 + p_223 + p_224  = 86
 c97:  s_5  = 35
 c98:  p_10 + s_6 + p_238 + p_285  = 116
 c99:  s_7  = 42
 c100: s_8  = 25
 c101: p_6 + p_8 + s_9 + p_236 + p_237  = 114
 c102: p_12 + p_14 + p_138 + p_152 + s_10 + p_215 + p_216 + p_219 + p_269
       + p_274  = 80
 c103: s_11 + p_192  = 70
 c104: p_114 + p_150 + s_12 + p_222 + p_223 + p_224 + p_242  = 86
 c105: p_8 + p_102 + p_180 + s_13 + p_210 + p_232 + p_237 + p_282  = 105
 c106: s_14  = 109
 c107: s_15  = 57
 c108: s_16  = 97
 c109: p_16 + p_18 + p_20 + p_22 + s_17 + p_186 + p_187 + p_188 + p_286 + p_288
        = 102
 c110: s_18 + p_287  = 63
 c111: s_19  = 103
 c112: s_20  = 85
 c113: s_21  = 43
 c114: p_154 + s_22 + p_189 + p_190 + p_191 + p_195 + p_206 + p_207  = 107
 c115: s_23 + p_239 + p_240 + p_241 + p_243 + p_244 + p_245 + p_262 + p_266
       + p_270  = 33
 c116: s_24  = 95
 c117: s_25  = 38
 c118: p_52 + p_76 + s_26 + p_198 + p_205 + p_210 + p_213 + p_228 + p_249  = 59
 c119: s_27  = 82
 c120: p_24 + p_26 + p_28 + p_156 + p_158 + s_28 + p_289 + p_290 + p_291  = 72
 c121: p_30 + p_32 + p_34 + p_42 + p_50 + p_52 + p_62 + p_174 + p_176 + p_180
       + s_29 + p_294 + p_297 + p_301  = 49
 c122: p_18 + p_22 + p_40 + p_84 + p_86 + p_124 + p_142 + p_144 + p_152 + p_164
       + p_166 + p_172 + s_30 + p_187 + p_188 + p_189 + p_190 + p_191 + p_193
       + p_214 + p_220 + p_221 + p_226 + p_227 + p_229 + p_233 + p_239 + p_240
       + p_241 + p_245 + p_265 + p_271 + p_272 + p_274 + p_276 + p_277 + p_283
        = 111
 c123: p_10 + p_46 + p_94 + p_110 + p_112 + p_134 + s_31 + p_185 + p_195
       + p_198 + p_206 + p_211 + p_225 + p_231 + p_284 + p_285  = 84
 c124: s_32  = 92
 c125: s_33 + p_192 + p_194 + p_201 + p_209 + p_230 + p_232 + p_242 + p_305
       + p_306 + p_307  = 74
 c126: p_16 + p_52 + p_76 + p_176 + s_34 + p_243 + p_244 + p_245 + p_297
       + p_301  = 107
 c127: p_36 + p_40 + p_152 + s_35 + p_189 + p_190 + p_191 + p_233  = 49
 c128: p_4 + p_38 + p_118 + p_128 + p_140 + s_36 + p_216 + p_219  = 26
 c129: p_30 + p_32 + p_34 + p_50 + p_62 + p_74 + p_102 + p_120 + p_146 + p_170
       + p_174 + p_180 + s_37 + p_263 + p_292  = 101
 c130: p_2 + p_10 + p_42 + p_46 + p_50 + p_52 + p_62 + p_66 + p_94 + p_110
       + p_112 + p_130 + p_134 + p_174 + p_176 + p_180 + s_38 + p_185 + p_195
       + p_198 + p_201 + p_206 + p_209 + p_211 + p_225 + p_230 + p_231 + p_232
       + p_284 + p_285 + p_294 + p_297 + p_301 + p_307  = 111
 c131: p_18 + p_22 + p_40 + p_48 + p_54 + p_84 + p_86 + p_124 + p_164 + p_166
       + s_39 + p_187 + p_188 + p_189 + p_190 + p_191 + p_193 + p_197 + p_214
       + p_226 + p_227 + p_233 + p_239 + p_240 + p_241 + p_245 + p_248 + p_265
       + p_276 + p_277 + p_283 + p_286 + p_288 + p_295 + p_296 + p_298 + p_302
       + p_303  = 96
 c132: p_144 + s_40 + p_196 + p_220 + p_221 + p_271 + p_272 + p_299 + p_300
        = 113
 c133: s_41 + p_234 + p_235 + p_238 + p_246 + p_247 + p_249 + p_255 + p_260
       + p_261 + p_267 + p_268 + p_280  = 71
 c134: p_44 + p_142 + p_152 + s_42 + p_274  = 118
 c135: s_43 + p_250 + p_279 + p_282  = 79
 c136: s_44  = 99
 c137: p_58 + p_108 + p_136 + s_45 + p_199 + p_200 + p_201 + p_250  = 106
 c138: p_56 + p_60 + p_62 + p_70 + p_72 + p_132 + s_46  = 26
 c139: s_47 + p_186 + p_195 + p_198 + p_205 + p_206 + p_207 + p_210 + p_211
       + p_213 + p_225 + p_228 + p_231 + p_249 + p_280  = 33
 c140: p_18 + p_22 + p_84 + p_86 + p_124 + p_142 + p_144 + p_164 + p_166
       + p_172 + s_48 + p_187 + p_188 + p_214 + p_220 + p_221 + p_226 + p_227
       + p_229 + p_234 + p_239 + p_240 + p_241 + p_243 + p_245 + p_251 + p_265
       + p_267 + p_271 + p_272 + p_276 + p_277  = 84
 c141: p_16 + p_74 + p_76 + p_82 + p_102 + p_120 + p_146 + p_170 + s_49 + p_246
       + p_263  = 26
 c142: p_4 + p_10 + p_38 + p_94 + p_110 + p_112 + p_128 + p_134 + p_140 + s_50
       + p_185 + p_216 + p_219 + p_244 + p_284 + p_285  = 102
 c143: s_51 + p_266 + p_270  = 46
 c144: s_52  = 97
 c145: s_53  = 99
 c146: p_66 + p_68 + p_70 + p_72 + s_54 + p_202 + p_203 + p_204 + p_252  = 84
 c147: p_64 + p_74 + p_76 + p_78 + s_55 + p_205 + p_251 + p_293  = 99
 c148: s_56  = 35
 c149: s_57  = 100
 c150: p_80 + s_58 + p_206 + p_253 + p_294  = 99
 c151: s_59  = 95
 c152: p_16 + p_18 + p_22 + p_74 + p_76 + p_82 + p_84 + p_86 + p_102 + p_120
       + p_124 + p_142 + p_144 + p_146 + p_164 + p_166 + p_170 + p_172 + s_60
       + p_207 + p_263 + p_265 + p_271 + p_272 + p_276 + p_277  = 102
 c153: s_61 + p_284 + p_285  = 28
 c154: p_4 + p_10 + p_94 + p_112 + p_128 + p_140 + s_62 + p_185 + p_216 + p_219
       + p_295 + p_296  = 31
 c155: p_56 + p_88 + p_96 + p_98 + p_100 + p_178 + s_63 + p_193 + p_197 + p_199
       + p_204 + p_233 + p_283  = 48
 c156: p_2 + p_10 + p_90 + p_94 + p_110 + p_112 + s_64 + p_185 + p_206 + p_209
       + p_211 + p_225 + p_234 + p_235 + p_238 + p_255 + p_260 + p_261 + p_284
       + p_285 + p_294 + p_297 + p_301  = 96
 c157: s_65  = 100
 c158: p_22 + p_48 + p_54 + p_60 + p_70 + p_72 + p_86 + p_124 + p_132 + p_164
       + p_166 + s_66 + p_188 + p_189 + p_190 + p_191 + p_200 + p_202 + p_203
       + p_214 + p_217 + p_226 + p_227 + p_239 + p_240 + p_241 + p_265 + p_276
       + p_277 + p_288 + p_289 + p_290 + p_291 + p_296 + p_298 + p_302 + p_303
        = 99
 c159: s_67  = 79
 c160: s_68 + p_248 + p_252 + p_254 + p_256 + p_257 + p_281  = 46
 c161: p_92 + p_108 + p_136 + s_69 + p_208 + p_212 + p_218  = 95
 c162: s_70 + p_258  = 61
 c163: p_64 + s_71  = 102
 c164: p_4 + p_10 + p_20 + p_78 + s_72 + p_185 + p_235 + p_238  = 29
 c165: s_73 + p_293  = 75
 c166: p_16 + p_18 + p_22 + p_102 + p_120 + p_122 + p_124 + p_142 + p_144
       + p_146 + p_148 + p_164 + p_166 + p_168 + s_74 + p_186 + p_187 + p_188
       + p_210 + p_213 + p_214 + p_220 + p_221 + p_226 + p_227 + p_264 + p_273
       + p_278 + p_286 + p_288 + p_298 + p_299 + p_300 + p_302 + p_303  = 74
 c167: s_75  = 115
 c168: p_104 + s_76 + p_189 + p_239 + p_289  = 116
 c169: p_10 + p_108 + p_110 + p_112 + p_136 + s_77 + p_206 + p_211 + p_212
       + p_218 + p_225 + p_238 + p_260 + p_261 + p_285 + p_294 + p_297 + p_301
        = 99
 c170: p_22 + p_72 + p_124 + p_132 + p_156 + p_162 + s_78 + p_188 + p_203
       + p_214 + p_217 + p_223 + p_265 + p_288 + p_298  = 66
 c171: p_54 + p_60 + p_80 + p_106 + p_138 + p_166 + s_79 + p_191 + p_200
       + p_227 + p_241 + p_253 + p_259 + p_269 + p_277 + p_291 + p_303  = 102
 c172: p_102 + p_114 + p_120 + p_170 + p_174 + p_180 + s_80 + p_192 + p_210
       + p_213 + p_222 + p_223 + p_224 + p_228 + p_230 + p_232 + p_242 + p_263
       + p_279 + p_282  = 80
 c173: p_12 + p_116 + s_81 + p_262  = 117
 c174: p_118 + p_152 + s_82 + p_215 + p_216 + p_219 + p_274  = 36
 c175: s_83  = 63
 c176: p_120 + p_122 + p_124 + p_142 + p_144 + p_146 + p_148 + p_164 + p_166
       + p_168 + s_84 + p_213 + p_214 + p_220 + p_221 + p_226 + p_227 + p_298
        = 29
 c177: p_10 + p_78 + s_85 + p_238 + p_263 + p_264 + p_265  = 34
 c178: s_86  = 42
 c179: s_87 + p_215 + p_216  = 70
 c180: p_126 + p_128 + s_88 + p_266  = 55
 c181: s_89  = 76
 c182: s_90  = 119
 c183: p_66 + p_130 + p_134 + s_91 + p_201 + p_250 + p_267 + p_268  = 113
 c184: p_68 + p_70 + p_72 + p_132 + s_92 + p_196 + p_208 + p_220 + p_271
       + p_299  = 106
 c185: p_108 + p_136 + s_93 + p_212 + p_218  = 84
 c186: s_94  = 95
 c187: s_95 + p_199 + p_200 + p_202 + p_203 + p_204 + p_217 + p_252  = 45
 c188: s_96  = 25
 c189: p_132 + p_156 + p_162 + s_97 + p_217 + p_223  = 99
 c190: s_98  = 79
 c191: p_80 + p_136 + p_138 + s_99 + p_206 + p_218 + p_253 + p_269 + p_294
        = 66
 c192: p_24 + p_26 + p_28 + p_114 + p_150 + p_156 + p_158 + p_182 + s_100
       + p_223 + p_224  = 65
 c193: p_8 + p_88 + p_138 + s_101 + p_219 + p_237 + p_254 + p_269  = 86
 c194: s_102  = 46
 c195: p_30 + p_96 + p_178 + s_103 + p_256 + p_281 + p_305  = 55
 c196: s_104  = 62
 c197: p_4 + p_80 + p_100 + p_106 + p_126 + p_128 + p_140 + p_160 + s_105
       + p_253 + p_259 + p_266 + p_270 + p_275  = 32
 c198: s_106  = 103
 c199: s_107  = 38
 c200: s_108 + p_222  = 35
 c201: p_142 + p_144 + p_146 + p_148 + s_109 + p_220 + p_221 + p_271 + p_272
       + p_273 + p_299 + p_300  = 113
 c202: p_150 + p_152 + s_110 + p_274  = 105
 c203: s_111  = 76
 c204: s_112  = 109
 c205: p_12 + p_116 + p_154 + p_156 + p_158 + s_113 + p_262  = 59
 c206: s_114 + p_210 + p_213 + p_222 + p_223 + p_224 + p_228  = 117
 c207: s_115  = 35
 c208: s_116  = 65
 c209: p_6 + p_8 + p_80 + p_106 + p_138 + p_160 + s_117  = 86
 c210: p_24 + p_114 + s_118  = 114
 c211: p_26 + p_156 + p_162 + s_119 + p_223 + p_225 + p_301  = 102
 c212: s_120  = 119
 c213: s_121 + p_236 + p_237 + p_253 + p_259 + p_269 + p_275  = 62
 c214: s_122  = 85
 c215: s_123  = 82
 c216: s_124 + p_263 + p_265 + p_271 + p_272 + p_276 + p_277  = 28
 c217: s_125 + p_264 + p_273 + p_278 + p_299 + p_300 + p_302 + p_303  = 75
 c218: p_142 + p_144 + p_146 + p_148 + p_164 + p_166 + p_168 + s_126 + p_220
       + p_221 + p_226 + p_227 + p_284  = 34
 c219: s_127  = 113
 c220: s_128  = 68
 c221: s_129  = 43
 c222: s_130  = 92
 c223: s_131 + p_286 + p_288 + p_295 + p_296 + p_298 + p_299 + p_300 + p_302
       + p_303 + p_304  = 71
 c224: s_132 + p_186 + p_187 + p_188 + p_205 + p_210 + p_213 + p_214 + p_220
       + p_221 + p_226 + p_227 + p_228 + p_229 + p_234 + p_246 + p_247 + p_249
       + p_251 + p_267 + p_280  = 46
 c225: p_122 + s_133 + p_264  = 99
 c226: p_16 + p_18 + p_22 + p_74 + p_76 + p_102 + p_120 + p_124 + p_142 + p_144
       + p_146 + p_164 + p_166 + p_170 + p_172 + s_134 + p_260 + p_268  = 31
 c227: p_4 + p_10 + p_64 + p_78 + p_94 + p_112 + p_140 + s_135 + p_185 + p_219
       + p_235 + p_238 + p_255 + p_261 + p_270 + p_293  = 74
 c228: s_136  = 95
 c229: s_137  = 68
 c230: p_62 + p_174 + p_176 + p_180 + s_138 + p_230 + p_231 + p_232 + p_279
       + p_280 + p_282  = 118
 c231: p_44 + p_92 + p_108 + p_136 + p_142 + s_139  = 26
 c232: p_56 + p_60 + p_70 + p_72 + p_132 + p_178 + s_140 + p_199 + p_200
       + p_202 + p_203 + p_204 + p_217 + p_252 + p_281  = 95
 c233: s_141 + p_208 + p_212 + p_218  = 45
 c234: s_142  = 57
 c235: p_106 + p_160 + s_143 + p_259 + p_266 + p_270 + p_275  = 72
 c236: s_144 + p_274 + p_283  = 74
 c237: p_4 + p_80 + p_118 + p_126 + p_128 + p_140 + p_152 + p_184 + s_145
       + p_215 + p_216 + p_219 + p_233 + p_253  = 101
 c238: s_146  = 79
 c239: s_147 + p_289 + p_290 + p_291 + p_292  = 61
 c240: p_102 + p_120 + p_170 + p_174 + p_180 + s_148 + p_192 + p_230 + p_232
       + p_242 + p_263 + p_279 + p_282  = 36
 c241: p_24 + p_26 + p_28 + p_30 + p_32 + p_50 + p_74 + p_146 + p_156 + p_158
       + p_182 + s_149 + p_305 + p_306 + p_307  = 32
 c242: s_150  = 65
End
